NAME : optical-integer.-20280916.tour
COMMENT : Length = -20280916
COMMENT : Found by LKH [Keld Helsgaun] Wed May 19 15:42:00 2021
TYPE : TOUR
DIMENSION : 174
TOUR_SECTION
1
7
29
81
23
31
17
58
90
20
63
27
96
25
46
84
47
10
34
43
8
85
61
64
40
24
60
57
156
66
79
148
144
163
157
130
141
159
161
166
164
119
126
137
165
138
127
139
167
50
98
51
88
99
52
135
116
170
172
168
171
140
125
124
123
128
122
121
129
111
100
115
118
110
106
101
117
120
102
114
113
103
108
107
105
104
109
112
45
13
72
28
15
9
78
16
41
19
92
145
154
77
22
155
158
162
86
54
160
65
173
6
97
4
48
39
2
174
55
131
87
169
53
136
67
133
134
132
3
56
152
151
153
91
37
5
143
142
147
11
38
76
35
18
149
146
62
75
42
68
89
150
80
83
71
33
32
73
69
14
30
93
44
21
74
59
49
26
95
36
82
70
12
94
-1
EOF
